   n = 4;

   m = 3;

   profit = [| 2, 3, 4, 2, 3, 1
   | 6, 6, 7, 3, 1, 2
   | 8, 7, 8, 4, 3, 1
   | 7, 7, 6, 3, 1, 2 |];

   compatible = [| true, false, false, false
   | false, true, false, false
   | false, false, true, true
   | false, false, true, true |];
   